(declare-const X String)
; aohobygi\x2fzwiwHost\x3a\x7D\x7Crichfind\x2Ecom
(assert (not (str.in_re X (str.to_re "aohobygi/zwiwHost:}|richfind.com\u{a}"))))
; Test\d+TencentTravelerWebConnLibHost\x3Awww\x2Ee-finder\x2Ecc
(assert (str.in_re X (re.++ (str.to_re "Test") (re.+ (re.range "0" "9")) (str.to_re "TencentTravelerWebConnLibHost:www.e-finder.cc\u{a}"))))
; ^\d*[0-9](|.\d*[0-9]|,\d*[0-9])?$
(assert (not (str.in_re X (re.++ (re.* (re.range "0" "9")) (re.range "0" "9") (re.opt (re.union (re.++ re.allchar (re.* (re.range "0" "9")) (re.range "0" "9")) (re.++ (str.to_re ",") (re.* (re.range "0" "9")) (re.range "0" "9")))) (str.to_re "\u{a}")))))
; [A-Za-z](\.[A-Za-z0-9]|\-[A-Za-z0-9]|_[A-Za-z0-9]|[A-Za-z0-9][A-Za-z0-9])(\.[A-Za-z0-9]|\-[A-Za-z0-9]|_[A-Za-z0-9]|[A-Za-z0-9])*
(assert (not (str.in_re X (re.++ (re.union (re.range "A" "Z") (re.range "a" "z")) (re.union (re.++ (str.to_re ".") (re.union (re.range "A" "Z") (re.range "a" "z") (re.range "0" "9"))) (re.++ (str.to_re "-") (re.union (re.range "A" "Z") (re.range "a" "z") (re.range "0" "9"))) (re.++ (str.to_re "_") (re.union (re.range "A" "Z") (re.range "a" "z") (re.range "0" "9"))) (re.++ (re.union (re.range "A" "Z") (re.range "a" "z") (re.range "0" "9")) (re.union (re.range "A" "Z") (re.range "a" "z") (re.range "0" "9")))) (re.* (re.union (re.++ (str.to_re ".") (re.union (re.range "A" "Z") (re.range "a" "z") (re.range "0" "9"))) (re.++ (str.to_re "-") (re.union (re.range "A" "Z") (re.range "a" "z") (re.range "0" "9"))) (re.++ (str.to_re "_") (re.union (re.range "A" "Z") (re.range "a" "z") (re.range "0" "9"))) (re.range "A" "Z") (re.range "a" "z") (re.range "0" "9"))) (str.to_re "\u{a}")))))
(check-sat)
